c This Formular is generated by mcnf
c
c    horn? no 
c    forced? no 
c    mixed sat? no 
c    clause length = 3 
c
p cnf 20  91 
 -8 -10 -20 0
-6 20 -13 0
9 14 19 0
5 9 12 0
-6 20 -3 0
4 15 6 0
-4 12 17 0
1 -7 -9 0
17 6 -12 0
18 13 -10 0
6 13 20 0
-6 -16 9 0
-2 -4 -18 0
-3 -13 20 0
-8 -12 18 0
-13 20 18 0
15 -17 -4 0
11 -15 10 0
-9 4 -3 0
10 -6 -8 0
-3 8 12 0
%
0

74 18 45 52 37 82 24 100 13 72 99 47 78 32 87 100 66 40 68 2
